40
    27    19    18    66    40    22    81    39    12    94    80    99    43    70    67    44    60    39    70    76    20    41    99     1     6    70    37    26    30    75    50    64    33    54    78    29    84    63    42    38
    10     3     8     1     9     2     2     9     2     4    10     1     6    10     2    10     5     6     2     5    10     5    10    10     2     7     5     7     2     6     3    10     6     3     2     4    10     5     3     6
  1829  1980  1263  1532  1527  1377  1304  1295  1535  1844  1586  1958  1596  1809  1815  1897  1413  1694  1977  1622  1381  1288  1656  1747  1310  1524  1365  1364  1946  1848  1869  1620  1300  2001  1507  1693  1773  1790  1920  1566
